networks/zoo_20_36/zoo_20_36.sol
<?xml version = "1.0" encoding="UTF-8" standalone="yes"?>
<CPLEXSolution version="1.2">
 <header
   problemName="networks/zoo_20_36/zoo_20_36.lp"
   solutionName="incumbent"
   solutionIndex="-1"
   objectiveValue="11"
   solutionTypeValue="3"
   solutionTypeString="primal"
   solutionStatusValue="101"
   solutionStatusString="integer optimal solution"
   solutionMethodString="mip"
   primalFeasible="1"
   dualFeasible="1"
   MIPNodes="0"
   MIPIterations="120"
   writeLevel="3"/>
 <quality
   epInt="1.0000000000000001e-05"
   epRHS="9.9999999999999995e-07"
   maxIntInfeas="0"
   maxPrimalInfeas="0"
   maxX="2"
   maxSlack="8"/>
 <variables>
  <variable name="Y(1,10)" index="9" value="1"/>
  <variable name="Y(2,1)" index="19" value="1"/>
  <variable name="Y(5,5)" index="80" value="1"/>
  <variable name="Y(10,3)" index="173" value="1"/>
  <variable name="Y(12,6)" index="214" value="1"/>
  <variable name="Y(14,8)" index="254" value="1"/>
  <variable name="Y(20,10)" index="370" value="1"/>
  <variable name="Y(21,2)" index="381" value="1"/>
  <variable name="Y(26,4)" index="478" value="1"/>
  <variable name="Y(29,7)" index="538" value="1"/>
  <variable name="Y(31,9)" index="578" value="1"/>
  <variable name="X(1,10,1)" index="684" value="1"/>
  <variable name="X(1,11,2)" index="721" value="1"/>
  <variable name="X(2,12,21)" index="776" value="1"/>
  <variable name="X(3,4,5)" index="796" value="1"/>
  <variable name="X(3,13,10)" index="837" value="1"/>
  <variable name="X(4,2,21)" index="884" value="1"/>
  <variable name="X(4,3,10)" index="909" value="1"/>
  <variable name="X(4,5,5)" index="940" value="1"/>
  <variable name="X(4,6,12)" index="983" value="1"/>
  <variable name="X(4,7,29)" index="1036" value="1"/>
  <variable name="X(4,8,14)" index="1057" value="1"/>
  <variable name="X(4,10,20)" index="1099" value="1"/>
  <variable name="X(4,14,26)" index="1141" value="1"/>
  <variable name="X(5,4,20)" index="1171" value="1"/>
  <variable name="X(5,15,5)" index="1192" value="1"/>
  <variable name="X(6,4,21)" index="1244" value="1"/>
  <variable name="X(6,16,12)" index="1271" value="1"/>
  <variable name="X(7,4,26)" index="1321" value="1"/>
  <variable name="X(7,17,29)" index="1360" value="1"/>
  <variable name="X(8,4,29)" index="1396" value="1"/>
  <variable name="X(8,18,14)" index="1417" value="1"/>
  <variable name="X(9,10,31)" index="1470" value="1"/>
  <variable name="X(10,1,2)" index="1477" value="1"/>
  <variable name="X(10,4,1)" index="1512" value="1"/>
  <variable name="X(10,20,20)" index="1567" value="1"/>
  <variable name="C(1,10)" index="1585" value="1"/>
  <variable name="C(2,1)" index="1590" value="1"/>
  <variable name="C(5,4)" index="1597" value="1"/>
  <variable name="C(5,5)" index="1598" value="2"/>
  <variable name="C(10,3)" index="1611" value="1"/>
  <variable name="C(12,6)" index="1615" value="1"/>
  <variable name="C(14,8)" index="1619" value="1"/>
  <variable name="C(20,4)" index="1635" value="1"/>
  <variable name="C(20,10)" index="1636" value="2"/>
  <variable name="C(21,4)" index="1638" value="1"/>
  <variable name="C(21,2)" index="1639" value="2"/>
  <variable name="C(26,4)" index="1652" value="1"/>
  <variable name="C(29,4)" index="1659" value="1"/>
  <variable name="C(29,7)" index="1660" value="2"/>
 </variables>
</CPLEXSolution>
